
  25    0


   0  11 2 3 4 6 7 8 9 21 22 23 24 
   7   6 20 19 18 17 11 5 
   9   6 16 15 14 13 12 10 
   2   4 15 12 11 10 
   6   2 12 10 
  10   2 14 10 
   8   1 13 
   4   1 11 
   6   1 11 
   6   1 25
   4   1 25
   2   1 25
   4   1 25
   5   1 25
   2   1 25
   3   1 25
   4   1 25
   9   1 25
   6   1 25
   6   1 25
   3   1 25
   6   1 25
   2   1 25
   8   1 25
   0   0 
